GLPSOL--GLPK LP/MIP Solver 5.0
Parameter(s) specified in the command line:
 --lp ../modeles/3_414.lp --log 3_414.log
Reading problem data from '../modeles/3_414.lp'...
1255 rows, 2490 columns, 8703 non-zeros
1242 integer variables, all of which are binary
3754 lines were read
GLPK Integer Optimizer 5.0
1255 rows, 2490 columns, 8703 non-zeros
1242 integer variables, all of which are binary
Preprocessing...
1230 constraint coefficient(s) were reduced
1255 rows, 2487 columns, 8700 non-zeros
1242 integer variables, all of which are binary
Scaling...
 A: min|aij| =  9.335e-05  max|aij| =  4.000e+00  ratio =  4.285e+04
GM: min|aij| =  6.950e-02  max|aij| =  1.439e+01  ratio =  2.070e+02
EQ: min|aij| =  4.831e-03  max|aij| =  1.000e+00  ratio =  2.070e+02
2N: min|aij| =  3.906e-03  max|aij| =  1.761e+00  ratio =  4.507e+02
Constructing initial basis...
Size of triangular part is 1255
Solving LP relaxation...
GLPK Simplex Optimizer 5.0
1255 rows, 2487 columns, 8700 non-zeros
      0: obj =   6.000000000e+00 inf =   1.450e+01 (7)
     74: obj =   4.598216891e-01 inf =   0.000e+00 (0)
*   258: obj =  -1.732005846e+00 inf =   1.336e-15 (0)
OPTIMAL LP SOLUTION FOUND
Integer optimization begins...
Long-step dual simplex will be used
+   258: mip =     not found yet >=              -inf        (1; 0)
+   733: >>>>>  -1.732005846e+00 >=  -1.732005846e+00   0.0% (473; 0)
+   733: mip =  -1.732005846e+00 >=     tree is empty   0.0% (0; 945)
INTEGER OPTIMAL SOLUTION FOUND
Time used:   0.8 secs
Memory used: 3.7 Mb (3845129 bytes)
